\ Model Ore Mixing Problem
\ LP format - for model browsing. Use MPS format to capture full model detail.
Minimize
  23.76425855513308 a_max_00 + 26.06882168925965 a_max_01
   + 2380.952380952381 a_max_10 + 2777.777777777777 a_max_11
   + 8333.333333333334 a_max_20 + 1e+09 a_max_21 + 20000 a_max_30
   + 1e+09 a_max_31 + 1408.450704225352 a_max_40
   + 14285.7142857143 a_max_41 + 934.5794392523366 a_max_50
   + 1470.588235294118 a_max_51 + 342.4657534246574 a_min_00
   + 150.6024096385542 a_min_01 + 925.9259259259259 a_min_10
   + 877.1929824561404 a_min_11 + 2631.578947368421 a_min_20
   + 2000 a_min_21 + 2222.222222222222 a_min_30 + 2000 a_min_31
   + 3448.275862068966 a_min_40 + 1075.268817204301 a_min_41
   + 2325.581395348836 a_min_50 + 1219.512195121951 a_min_51
   + 0.3424657534246573 b_min_00 + 0.1506024096385542 b_min_01
   + 2.380952380952381 b_min_10 + 2.777777777777777 b_min_11
   + 8.333333333333334 b_min_20 + 1e+06 b_min_21 + 20 b_min_30
   + 1e+06 b_min_31 + 3.448275862068966 b_min_40
   + 14.2857142857143 b_min_41 + 2.325581395348836 b_min_50
   + 1.470588235294118 b_min_51 + 0.3424657534246573 b_max_00
   + 0.1506024096385542 b_max_01 + 2.380952380952381 b_max_10
   + 2.777777777777777 b_max_11 + 8.333333333333334 b_max_20
   + 1e+06 b_max_21 + 20 b_max_30 + 1e+06 b_max_31
   + 3.448275862068966 b_max_40 + 14.2857142857143 b_max_41
   + 2.325581395348836 b_max_50 + 1.470588235294118 b_max_51
Subject To
 capacity_constr_0: x_00 + x_01 <= 652.7
 capacity_constr_1: x_10 + x_11 <= 478
 capacity_constr_2: x_20 + x_21 <= 431.9
 capacity_constr_3: x_30 + x_31 <= 414.3
 capacity_constr_4: x_40 + x_41 <= 410.9
 capacity_constr_5: x_50 + x_51 <= 404
 demand_constr_0: x_00 + x_10 + x_20 + x_30 + x_40 + x_50 = 1366.1
 min_quality_constr_00: - 6.2 x_00 + 43.79 x_10 + 5.49 x_20 - 9.99 x_30
   + 25.92 x_40 + 7.47 x_50 + 1366.1 a_min_00 >= -0
 max_quality_constr_00: - 51.2 x_00 - 1.21 x_10 - 39.51 x_20 - 54.99 x_30
   - 19.08 x_40 - 37.53 x_50 - 1366.1 a_max_00 <= -0
 goal_quality_constr_00: - 9.12 x_00 + 40.87 x_10 + 2.57 x_20 - 12.91 x_30
   + 23 x_40 + 4.55 x_50 + b_min_00 - b_max_00 = -0
 min_quality_constr_10: 1.21 x_00 + 0.5 x_10 + 1.97 x_20 + 1.11 x_30
   + 1.65 x_40 + 1.03 x_50 + 1366.1 a_min_10 >= -0
 max_quality_constr_10: - 0.29 x_00 - x_10 + 0.47 x_20 - 0.39 x_30
   + 0.15 x_40 - 0.47 x_50 - 1366.1 a_max_10 <= -0
 goal_quality_constr_10: 0.13 x_00 - 0.58 x_10 + 0.89 x_20 + 0.03 x_30
   + 0.57 x_40 - 0.05 x_50 + b_min_10 - b_max_10 = -0
 min_quality_constr_20: 6.3 x_00 + 0.29 x_10 + 3.97 x_20 + 1.21 x_30
   + 2.55 x_40 + 3.77 x_50 + 1366.1 a_min_20 >= -0
 max_quality_constr_20: 5.8 x_00 - 0.21 x_10 + 3.47 x_20 + 0.71 x_30
   + 2.05 x_40 + 3.27 x_50 - 1366.1 a_max_20 <= -0
 goal_quality_constr_20: 5.92 x_00 - 0.09 x_10 + 3.59 x_20 + 0.83 x_30
   + 2.17 x_40 + 3.39 x_50 + b_min_20 - b_max_20 = -0
 min_quality_constr_30: 3.53 x_00 + 4.5 x_10 + 5.81 x_20 + 6.05 x_30
   + 0.07 x_40 + 4.68 x_50 + 1366.1 a_min_30 >= -0
 max_quality_constr_30: 3.03 x_00 + 4 x_10 + 5.31 x_20 + 5.55 x_30
   - 0.43 x_40 + 4.18 x_50 - 1366.1 a_max_30 <= -0
 goal_quality_constr_30: 3.08 x_00 + 4.05 x_10 + 5.36 x_20 + 5.6 x_30
   - 0.38 x_40 + 4.23 x_50 + b_min_30 - b_max_30 = -0
 min_quality_constr_40: 0.77 x_00 + 0.72 x_10 + 0.38 x_20 + 1.2 x_30
   + 0.57 x_40 + 1.2 x_50 + 1366.1 a_min_40 >= -0
 max_quality_constr_40: - 0.23 x_00 - 0.28 x_10 - 0.62 x_20 + 0.2 x_30
   - 0.43 x_40 + 0.2 x_50 - 1366.1 a_max_40 <= -0
 goal_quality_constr_40: 0.48 x_00 + 0.43 x_10 + 0.09 x_20 + 0.91 x_30
   + 0.28 x_40 + 0.91 x_50 + b_min_40 - b_max_40 = -0
 min_quality_constr_50: - 0.21 x_00 + 2.47 x_10 + 3.49 x_20 - 0.76 x_30
   + 1.9 x_40 + 2.81 x_50 + 1366.1 a_min_50 >= -0
 max_quality_constr_50: - 1.71 x_00 + 0.97 x_10 + 1.99 x_20 - 2.26 x_30
   + 0.4 x_40 + 1.31 x_50 - 1366.1 a_max_50 <= -0
 goal_quality_constr_50: - 0.64 x_00 + 2.04 x_10 + 3.06 x_20 - 1.19 x_30
   + 1.47 x_40 + 2.38 x_50 + b_min_50 - b_max_50 = -0
 demand_constr_1: x_01 + x_11 + x_21 + x_31 + x_41 + x_51 = 1296.3
 min_quality_constr_01: - 6.2 x_01 + 43.79 x_11 + 5.49 x_21 - 9.99 x_31
   + 25.92 x_41 + 7.47 x_51 + 1296.3 a_min_01 >= -0
 max_quality_constr_01: - 51.2 x_01 - 1.21 x_11 - 39.51 x_21 - 54.99 x_31
   - 19.08 x_41 - 37.53 x_51 - 1296.3 a_max_01 <= -0
 goal_quality_constr_01: - 12.84 x_01 + 37.15 x_11 - 1.15 x_21 - 16.63 x_31
   + 19.28 x_41 + 0.83 x_51 + b_min_01 - b_max_01 = -0
 min_quality_constr_11: 1.21 x_01 + 0.5 x_11 + 1.97 x_21 + 1.11 x_31
   + 1.65 x_41 + 1.03 x_51 + 1296.3 a_min_11 >= -0
 max_quality_constr_11: - 0.29 x_01 - x_11 + 0.47 x_21 - 0.39 x_31
   + 0.15 x_41 - 0.47 x_51 - 1296.3 a_max_11 <= -0
 goal_quality_constr_11: 0.07 x_01 - 0.64 x_11 + 0.83 x_21 - 0.03 x_31
   + 0.51 x_41 - 0.11 x_51 + b_min_11 - b_max_11 = -0
 min_quality_constr_21: 6.3 x_01 + 0.29 x_11 + 3.97 x_21 + 1.21 x_31
   + 2.55 x_41 + 3.77 x_51 + 1296.3 a_min_21 >= -0
 max_quality_constr_21: 5.8 x_01 - 0.21 x_11 + 3.47 x_21 + 0.71 x_31
   + 2.05 x_41 + 3.27 x_51 - 1296.3 a_max_21 <= -0
 goal_quality_constr_21: 5.8 x_01 - 0.21 x_11 + 3.47 x_21 + 0.71 x_31
   + 2.05 x_41 + 3.27 x_51 + b_min_21 - b_max_21 = -0
 min_quality_constr_31: 3.53 x_01 + 4.5 x_11 + 5.81 x_21 + 6.05 x_31
   + 0.07 x_41 + 4.68 x_51 + 1296.3 a_min_31 >= -0
 max_quality_constr_31: 3.03 x_01 + 4 x_11 + 5.31 x_21 + 5.55 x_31
   - 0.43 x_41 + 4.18 x_51 - 1296.3 a_max_31 <= -0
 goal_quality_constr_31: 3.03 x_01 + 4 x_11 + 5.31 x_21 + 5.55 x_31
   - 0.43 x_41 + 4.18 x_51 + b_min_31 - b_max_31 = -0
 min_quality_constr_41: 0.77 x_01 + 0.72 x_11 + 0.38 x_21 + 1.2 x_31
   + 0.57 x_41 + 1.2 x_51 + 1296.3 a_min_41 >= -0
 max_quality_constr_41: - 0.23 x_01 - 0.28 x_11 - 0.62 x_21 + 0.2 x_31
   - 0.43 x_41 + 0.2 x_51 - 1296.3 a_max_41 <= -0
 goal_quality_constr_41: - 0.16 x_01 - 0.21 x_11 - 0.55 x_21 + 0.27 x_31
   - 0.36 x_41 + 0.27 x_51 + b_min_41 - b_max_41 = -0
 min_quality_constr_51: - 0.21 x_01 + 2.47 x_11 + 3.49 x_21 - 0.76 x_31
   + 1.9 x_41 + 2.81 x_51 + 1296.3 a_min_51 >= -0
 max_quality_constr_51: - 1.71 x_01 + 0.97 x_11 + 1.99 x_21 - 2.26 x_31
   + 0.4 x_41 + 1.31 x_51 - 1296.3 a_max_51 <= -0
 goal_quality_constr_51: - 1.03 x_01 + 1.65 x_11 + 2.67 x_21 - 1.58 x_31
   + 1.08 x_41 + 1.99 x_51 + b_min_51 - b_max_51 = -0
Bounds
End
